c 39_4_checker_6cl.cnf
c
c field = 39
c formula set type = 4_checker_6cl
c
p cnf 6 22
68 
70 
72 
74 
-66 
-78 
69 
71 
73 
75 
-67 
-79 
70 
72 
74 
78 
-68 
-80 
71 
73 
75 
79 
-69 
-81 
72 
74 
78 
80 
-70 
-82 
73 
75 
79 
81 
-71 
-83 
74 
78 
80 
82 
-72 
-84 
75 
79 
81 
83 
-73 
-85 
78 
80 
82 
84 
-74 
-86 
79 
81 
83 
85 
-75 
-87 
46 
106 
136 
166 
-16 
-196 
47 
107 
137 
167 
-17 
-197 
106 
136 
166 
196 
-46 
-226 
107 
137 
167 
197 
-47 
-227 
44 
108 
140 
172 
-12 
-204 
45 
109 
141 
173 
-13 
-205 
108 
140 
172 
204 
-44 
-236 
109 
141 
173 
205 
-45 
-237 
48 
104 
132 
160 
-20 
-188 
49 
105 
133 
161 
-21 
-189 
104 
132 
160 
188 
-48 
-216 
105 
133 
161 
189 
-49 
-217 
